Version identifier: 22.1.1.0 | 2022-11-28 | 9160aff4d
CPXPARAM_Read_DataCheck                          1
CPXPARAM_MIP_Cuts_Covers                         1
CPXPARAM_MIP_Cuts_FlowCovers                     1
CPXPARAM_MIP_Cuts_MIRCut                         1
CPXPARAM_TimeLimit                               60
Tried aggregator 2 times.
MIP Presolve eliminated 76 rows and 161 columns.
MIP Presolve added 32 rows and 0 columns.
MIP Presolve modified 2938 coefficients.
Aggregator did 8 substitutions.
Reduced MIP has 690 rows, 848 columns, and 4076 nonzeros.
Reduced MIP has 824 binaries, 0 generals, 0 SOSs, and 0 indicators.
Presolve time = 0.00 sec. (5.92 ticks)
Found incumbent of value 2116.000000 after 0.01 sec. (9.72 ticks)
Probing time = 0.00 sec. (2.74 ticks)
Tried aggregator 1 time.
Detecting symmetries...
Reduced MIP has 690 rows, 848 columns, and 4076 nonzeros.
Reduced MIP has 824 binaries, 0 generals, 0 SOSs, and 0 indicators.
Presolve time = 0.00 sec. (2.64 ticks)
Probing time = 0.00 sec. (2.72 ticks)
Clique table members: 2437.
MIP emphasis: balance optimality and feasibility.
MIP search method: dynamic search.
Parallel mode: deterministic, using up to 12 threads.
Root relaxation solution time = 0.00 sec. (2.34 ticks)

        Nodes                                         Cuts/
   Node  Left     Objective  IInf  Best Integer    Best Bound    ItCnt     Gap

*     0+    0                         2116.0000        0.0000           100.00%
*     0+    0                         1674.0000        0.0000           100.00%
      0     0      213.4083    39     1674.0000      213.4083       89   87.25%
      0     0      226.3778    37     1674.0000      Cuts: 48      138   86.48%
      0     0      228.0000    41     1674.0000      Cuts: 27      167   86.38%
      0     0      229.3500    44     1674.0000      Cuts: 21      198   86.30%
      0     0      229.3500    41     1674.0000      Cuts: 26      213   86.30%
      0     0      229.3500    40     1674.0000       Cuts: 4      227   86.30%
Detecting symmetries...
*     0+    0                          268.0000      229.3500            14.42%
*     0+    0                          249.0000      229.4489             7.85%
      0     0  -1.00000e+75     0      249.0000      229.4489      227    7.85%
Detecting symmetries...

Repeating presolve.
Tried aggregator 2 times.
MIP Presolve eliminated 463 rows and 506 columns.
MIP Presolve added 2 rows and 0 columns.
MIP Presolve modified 27 coefficients.
Aggregator did 2 substitutions.
Reduced MIP has 227 rows, 340 columns, and 1165 nonzeros.
Reduced MIP has 316 binaries, 0 generals, 0 SOSs, and 0 indicators.
Presolve time = 0.00 sec. (1.84 ticks)
Probing fixed 2 vars, tightened 1 bounds.
Probing time = 0.00 sec. (0.82 ticks)
Cover probing fixed 0 vars, tightened 13 bounds.
Tried aggregator 1 time.
Detecting symmetries...
MIP Presolve eliminated 1 rows and 2 columns.
MIP Presolve modified 95 coefficients.
Reduced MIP has 226 rows, 338 columns, and 1157 nonzeros.
Reduced MIP has 314 binaries, 0 generals, 0 SOSs, and 0 indicators.
Presolve time = 0.00 sec. (0.87 ticks)
Represolve time = 0.01 sec. (4.80 ticks)
Probing time = 0.00 sec. (0.77 ticks)
Clique table members: 843.
MIP emphasis: balance optimality and feasibility.
MIP search method: dynamic search.
Parallel mode: deterministic, using up to 12 threads.
Root relaxation solution time = 0.00 sec. (2.59 ticks)

        Nodes                                         Cuts/
   Node  Left     Objective  IInf  Best Integer    Best Bound    ItCnt     Gap

*     0+    0                          249.0000      229.4489             7.85%
      0     0      229.3500    41      249.0000      229.4489      420    7.85%
      0     0      229.4543    57      249.0000      Cuts: 56      485    7.85%
      0     0      229.6647    41      249.0000      Cuts: 39      536    7.77%
      0     0      231.2540    62      249.0000      Cuts: 30      616    7.13%
      0     0      232.0823    49      249.0000      Cuts: 70      679    6.79%
      0     0      232.9050    75      249.0000      Cuts: 43      730    6.46%
Detecting symmetries...
      0     0      233.3778    73      249.0000      Cuts: 34      773    6.27%
      0     0      233.9187    66      249.0000      Cuts: 13      802    6.06%
      0     0      234.3909    64      249.0000      Cuts: 21      834    5.87%
      0     0      234.5377    76      249.0000      Cuts: 25      852    5.81%
      0     0      234.6364    76      249.0000       Cuts: 7      861    5.77%
      0     0      234.7234    75      249.0000       Cuts: 7      871    5.73%
      0     0      234.7472    85      249.0000      Cuts: 27      898    5.72%
      0     0      234.9384    97      249.0000       Cuts: 8      918    5.65%
      0     0      235.2941    83      249.0000      Cuts: 42      953    5.50%
      0     0      235.5009    93      249.0000      Cuts: 13      976    5.42%
      0     0      235.5653    88      249.0000       Cuts: 7      993    5.40%
      0     0      235.5788    98      249.0000      Cuts: 10     1004    5.39%
*     0+    0                          243.0000      235.5788             3.05%
      0     0        cutoff            243.0000      243.0000     1004    0.00%
Elapsed time = 0.21 sec. (167.16 ticks, tree = 0.01 MB, solutions = 5)

GUB cover cuts applied:  3
Clique cuts applied:  14
Cover cuts applied:  38
Implied bound cuts applied:  4
Flow cuts applied:  0
Mixed integer rounding cuts applied:  33
Zero-half cuts applied:  23
Lift and project cuts applied:  2
Gomory fractional cuts applied:  6

Root node processing (before b&c):
  Real time             =    0.21 sec. (167.23 ticks)
Parallel b&c, 12 threads:
  Real time             =    0.00 sec. (0.00 ticks)
  Sync time (average)   =    0.00 sec.
  Wait time (average)   =    0.00 sec.
                          ------------
Total (root+branch&cut) =    0.21 sec. (167.23 ticks)
